(set-logic ALL)
(declare-fun var0 () String)
(assert (str.in_re var0 (re.++ (re.* (re.+ (str.to_re "000"))) (re.++ (re.+ (re.+ (str.to_re "111"))) (re.++ (re.+ (re.+ (str.to_re "22"))) (re.++ (re.+ (re.* (str.to_re "333"))) (re.++ (re.+ (re.+ (str.to_re "44"))) (re.++ (re.* (re.* (str.to_re "555"))) (re.++ (re.* (re.* (str.to_re "666"))) (re.++ (re.union (re.+ (str.to_re "7")) (re.+ (str.to_re "888"))) (re.++ (re.union (re.union (str.to_re "9") (str.to_re "a")) (re.union (str.to_re "bb") (str.to_re "cc"))) (re.++ (re.+ (re.union (str.to_re "ddd") (str.to_re "eee"))) (re.++ (re.union (re.union (str.to_re "ff") (str.to_re "ggg")) (re.union (str.to_re "hh") (str.to_re "ii"))) (re.++ (re.+ (re.* (str.to_re "j"))) (re.++ (re.+ (re.* (str.to_re "k"))) (re.++ (re.+ (re.+ (str.to_re "ll"))) (re.++ (re.+ (re.* (str.to_re "mm"))) (re.++ (re.+ (re.* (str.to_re "nnn"))) (re.++ (re.* (re.+ (str.to_re "o"))) (re.++ (re.* (re.+ (str.to_re "ppp"))) (re.++ (re.+ (re.* (str.to_re "q"))) (re.++ (re.+ (re.+ (str.to_re "rrr"))) (re.++ (re.* (re.* (str.to_re "sss"))) (re.++ (re.union (re.union (str.to_re "tt") (str.to_re "uu")) (re.union (str.to_re "vv") (str.to_re "ww"))) (re.++ (re.union (re.union (str.to_re "xxx") (str.to_re "yyy")) (re.union (str.to_re "z") (str.to_re "A"))) (re.++ (re.* (re.union (str.to_re "BBB") (str.to_re "CCC"))) (re.++ (re.+ (re.union (str.to_re "D") (str.to_re "EEE"))) (re.++ (re.union (re.* (str.to_re "FF")) (re.* (str.to_re "G"))) (re.++ (re.* (re.union (str.to_re "HH") (str.to_re "III"))) (re.++ (re.+ (re.* (str.to_re "J"))) (re.* (re.* (str.to_re "KKK")))))))))))))))))))))))))))))))))
(check-sat)